TCS_Benchmarks/redos_fix/regexlib1_output_distinct_3210_3209_0_0.txt
([ ]+|[xX]|(i:ext[\.]?)){1,2}
[ ]+